<number of tasks>
250

<cycle time>
1000

<order strength>
0.896


<task times>
1 591
2 489
3 401
4 589
5 475
6 605
7 467
8 573
9 560
10 432
11 538
12 556
13 737
14 255
15 479
16 586
17 450
18 549
19 517
20 593
21 631
22 474
23 603
24 523
25 556
26 278
27 602
28 548
29 502
30 601
31 765
32 703
33 690
34 445
35 581
36 498
37 552
38 515
39 393
40 565
41 455
42 541
43 373
44 494
45 626
46 507
47 663
48 505
49 506
50 423
51 630
52 527
53 569
54 620
55 406
56 631
57 476
58 482
59 389
60 422
61 610
62 557
63 566
64 487
65 669
66 462
67 334
68 445
69 412
70 545
71 199
72 340
73 650
74 440
75 610
76 500
77 373
78 497
79 579
80 568
81 541
82 626
83 534
84 313
85 694
86 317
87 651
88 450
89 352
90 498
91 433
92 378
93 363
94 516
95 546
96 601
97 525
98 363
99 311
100 361
101 295
102 305
103 501
104 431
105 508
106 731
107 472
108 448
109 251
110 522
111 597
112 124
113 400
114 588
115 481
116 400
117 414
118 652
119 588
120 551
121 626
122 397
123 430
124 620
125 340
126 521
127 602
128 417
129 381
130 378
131 510
132 344
133 120
134 609
135 522
136 493
137 392
138 482
139 389
140 322
141 613
142 658
143 731
144 568
145 441
146 252
147 492
148 598
149 560
150 304
151 772
152 172
153 324
154 536
155 426
156 596
157 630
158 542
159 576
160 489
161 262
162 543
163 549
164 543
165 717
166 440
167 289
168 477
169 547
170 449
171 317
172 424
173 736
174 478
175 580
176 290
177 548
178 513
179 470
180 255
181 357
182 496
183 618
184 248
185 664
186 470
187 488
188 283
189 650
190 480
191 453
192 637
193 564
194 233
195 402
196 357
197 491
198 612
199 702
200 709
201 282
202 588
203 533
204 351
205 526
206 365
207 431
208 495
209 716
210 467
211 401
212 532
213 373
214 546
215 470
216 454
217 265
218 560
219 477
220 559
221 434
222 333
223 673
224 488
225 557
226 419
227 602
228 508
229 600
230 520
231 706
232 571
233 507
234 585
235 393
236 649
237 435
238 724
239 464
240 431
241 480
242 612
243 588
244 600
245 317
246 528
247 624
248 531
249 334
250 671

<precedence relations>
1,5
1,16
2,5
2,6
2,7
3,5
3,6
3,7
4,5
5,9
5,11
6,8
6,9
6,10
6,11
7,8
7,9
7,10
7,11
8,12
8,16
9,14
9,41
9,42
9,43
10,29
11,13
11,15
12,41
12,43
13,17
13,18
13,19
13,20
14,17
14,31
14,32
15,17
15,39
16,17
16,18
16,19
16,20
17,45
17,47
18,21
18,23
18,24
18,26
19,21
19,22
20,21
20,22
20,23
20,24
20,25
20,26
21,27
21,28
21,30
22,27
22,28
22,29
22,30
23,102
24,27
25,27
25,28
25,29
25,30
26,27
26,28
26,29
26,30
27,31
27,32
27,33
27,34
27,35
27,36
28,31
28,32
28,33
28,34
28,35
28,36
29,31
29,32
29,33
29,34
29,35
29,36
30,31
30,32
30,33
30,34
30,35
30,36
31,78
31,87
32,70
32,71
32,72
33,37
33,38
34,37
34,38
35,37
35,38
36,37
36,38
37,39
38,39
39,40
39,41
39,42
39,43
40,44
40,45
40,46
40,47
41,44
41,45
41,46
41,47
42,44
42,45
42,46
42,47
43,44
43,45
43,46
43,47
44,48
44,49
44,50
44,51
44,52
45,48
45,49
45,50
45,51
45,52
46,48
46,49
46,50
46,51
46,52
47,48
47,49
47,50
47,51
47,52
48,53
48,54
48,55
49,53
49,54
49,55
49,56
50,53
50,54
51,53
51,54
51,55
51,56
52,53
52,55
53,57
53,59
53,60
53,61
53,62
53,63
54,57
54,58
54,62
54,63
55,59
55,63
56,57
56,58
56,59
56,60
56,61
56,62
56,63
57,64
57,65
57,66
57,67
57,68
58,64
58,65
58,66
58,67
58,68
59,64
59,65
59,66
59,67
59,68
60,64
60,65
60,66
60,67
60,68
61,64
61,65
61,66
62,64
62,65
62,66
62,67
62,68
63,64
63,65
63,66
63,67
63,68
64,69
64,70
64,71
64,72
65,69
65,70
65,71
65,72
66,69
66,70
66,71
66,72
67,69
67,70
68,69
69,73
69,74
69,75
69,86
70,73
70,74
70,75
70,76
70,77
71,78
71,87
72,75
72,79
73,80
73,81
73,87
74,80
74,81
74,82
74,83
74,87
75,84
75,85
76,80
76,85
76,86
76,87
77,80
77,81
77,85
77,86
77,87
78,80
79,80
79,82
79,86
79,87
80,88
80,89
80,90
81,88
81,89
81,90
82,88
82,89
82,90
83,88
83,89
83,90
84,88
84,89
85,88
85,89
85,90
86,88
86,89
86,90
87,88
87,89
87,90
88,91
88,92
88,93
88,94
89,91
89,92
89,93
89,100
90,91
90,92
90,93
90,94
91,95
91,96
91,97
91,98
92,97
93,95
93,96
93,97
93,98
94,95
94,99
94,100
95,104
95,108
95,109
96,101
96,102
96,105
96,106
96,107
97,101
97,102
97,103
97,104
97,105
97,107
98,101
98,102
98,106
98,107
98,115
99,101
99,121
100,101
100,102
100,103
100,104
101,109
102,111
102,123
103,108
103,109
104,110
104,111
104,112
105,108
105,110
105,111
105,112
106,108
106,109
106,110
106,111
107,108
107,119
108,140
108,149
108,150
109,114
110,124
111,130
111,134
112,113
112,114
112,115
112,116
113,117
113,118
113,119
113,120
113,121
113,122
114,117
114,118
114,119
114,120
114,122
115,117
115,121
116,117
116,118
116,119
116,120
116,121
117,123
117,124
117,125
118,123
118,124
118,125
119,167
120,125
120,130
121,123
121,124
121,125
122,145
123,127
123,130
123,131
124,126
124,127
124,128
124,129
124,132
125,131
125,136
125,137
125,139
125,140
126,133
126,134
126,135
126,136
126,137
127,133
127,134
127,135
127,136
127,137
128,133
128,134
128,137
129,136
129,142
130,214
130,216
131,166
131,223
132,153
132,155
133,138
133,139
133,140
133,141
134,139
134,154
135,140
136,141
137,138
138,142
138,143
138,144
138,145
139,147
139,155
140,142
141,151
142,146
142,147
142,148
142,151
143,147
143,149
143,150
143,154
144,146
144,147
144,148
144,149
144,150
144,151
145,146
145,147
145,148
146,242
146,243
147,152
147,153
148,154
148,157
149,152
149,153
150,155
151,152
151,153
151,155
152,156
152,173
153,156
153,157
153,158
153,159
154,162
155,156
156,163
157,160
157,161
157,162
158,161
158,162
158,163
158,167
159,164
159,169
159,186
160,167
160,193
161,166
161,168
162,165
162,166
163,165
163,166
164,173
165,170
165,171
166,169
166,172
166,226
167,168
167,171
168,173
168,218
169,177
169,191
169,202
170,174
170,175
171,179
172,193
173,177
173,178
173,194
174,179
174,199
174,202
174,209
175,176
175,178
176,181
176,183
177,182
177,225
178,180
179,220
179,225
180,184
181,185
182,198
183,186
183,187
183,201
184,195
184,210
185,188
185,189
186,202
187,189
188,192
189,190
189,191
189,193
190,194
190,196
190,197
190,200
191,198
191,199
192,195
192,201
192,206
193,200
193,202
195,204
196,203
197,204
197,205
197,218
198,230
199,216
199,235
200,203
200,206
200,222
200,233
201,217
202,205
203,207
203,217
204,209
204,211
204,212
204,214
204,216
205,208
205,212
205,213
205,229
206,207
206,210
206,227
207,218
208,216
208,235
210,249
211,215
212,219
212,222
212,233
213,217
214,224
214,234
215,223
216,220
216,221
216,222
216,224
217,220
217,237
218,231
218,240
219,240
220,243
221,225
222,237
223,225
223,226
223,227
225,228
225,231
226,231
226,237
227,229
227,230
228,232
228,233
228,234
230,232
230,235
232,237
233,236
234,237
234,238
234,239
235,240
239,240
240,241
240,242
240,243
240,244
241,245
241,246
245,250
246,247
246,248
246,249

<end>
